%chk=G:\work\fep_hne\27_scan.chk
# apfd/6-311+g(2d,p) geom=connectivity

27

0 1
 C                 -5.47600000   36.11400000   -5.15170000
 N                 -5.88650000   37.18450000   -4.22560000
 C                 -6.13420000   36.96970000   -2.91030000
 N                 -6.09410000   35.71990000   -2.37140000
 C                 -5.44170000   34.73360000   -3.06430000
 C                 -5.13990000   34.86950000   -4.37910000
 C                 -6.56950000   35.87740000   -6.20180000
 C                 -6.43400000   36.14890000   -7.55660000
 C                 -7.51410000   35.99500000   -8.39380000
 C                 -8.74000000   35.56820000   -7.90190000
 C                 -8.85260000   35.24180000   -6.55920000
 C                 -7.77360000   35.39690000   -5.73000000
 C                 -9.88120000   35.49710000   -8.77730000
 N                -10.77840000   35.45090000   -9.47120000
 C                 -4.42210000   33.85770000   -5.11420000
 C                 -6.71810000   35.48630000   -1.12890000
 C                 -7.94300000   34.84850000   -1.07580000
 C                 -8.57270000   34.63310000    0.12860000
 C                 -7.95400000   35.02250000    1.29800000
 C                 -6.72630000   35.64530000    1.25920000
 C                 -6.11820000   35.88950000    0.05030000
 C                 -9.95200000   33.99570000    0.15500000
 F                -10.16270000   33.23190000    1.29830000
 F                -10.15410000   33.17320000   -0.94560000
 F                -10.93790000   34.97480000    0.11720000
 C                 -5.06720000   33.52800000   -2.22240000
 O                 -6.40710000   37.91780000   -2.17850000
 H                 -4.45200000   36.49040000   -5.65040000
 C                 -6.04350000   38.54610000   -4.77130000
 H                 -9.72230000   34.91340000   -6.19090000
 H                 -7.86430000   35.18350000   -4.75640000
 H                 -8.38060000   34.55390000   -1.92490000
 H                 -8.40260000   34.86010000    2.17830000
 H                 -6.28150000   35.92970000    2.11000000
 H                 -5.23670000   36.36040000    0.02080000
 H                 -4.36570000   33.88350000   -1.31530000
 H                 -6.05400000   33.01970000   -1.77420000
 H                 -4.47760000   32.71160000   -2.87430000
 N                 -3.85440000   33.06330000   -5.69260000
 H                 -7.42380000   36.20910000   -9.36760000
 C                 -5.13340000   36.64180000   -8.17650000
 H                 -5.01540000   38.91150000   -5.27030000
 H                 -6.91110000   38.55430000   -5.60140000
 H                 -6.33770000   39.32320000   -3.90470000
 F                 -4.08020000   35.78930000   -7.86940000
 F                 -5.19580000   36.72550000   -9.56350000
 F                 -4.80720000   37.90670000   -7.70230000

 1 2 1.0 6 1.0 7 1.0 28 1.0
 2 3 1.0 29 1.0
 3 4 1.0 27 2.0
 4 5 1.0 16 1.0
 5 6 2.0 26 1.0
 6 15 1.0
 7 8 2.0 12 1.0
 8 9 1.0 41 1.0
 9 10 2.0 40 1.0
 10 11 1.0 13 1.0
 11 12 2.0 30 1.0
 12 31 1.0
 13 14 3.0
 14
 15 39 3.0
 16 17 2.0 21 1.0
 17 18 1.0 32 1.0
 18 19 2.0 22 1.0
 19 20 1.0 33 1.0
 20 21 2.0 34 1.0
 21 35 1.0
 22 23 1.0 24 1.0 25 1.0
 23
 24
 25
 26 36 1.0 37 1.0 38 1.0
 27
 28
 29 42 1.0 43 1.0 44 1.0
 30
 31
 32
 33
 34
 35
 36
 37
 38
 39
 40
 41 45 1.0 46 1.0 47 1.0
 42
 43
 44
 45
 46
 47

